decision_x1=[0,2];
decision_x2=[0,2];
decision_x3=[0,2];
decision_x4=[0,2];
decision_x5=[0,2];
decision_x6=[0,2];
decision_x7=[0,2];
decision_x8=[0,2];
decision_x9=[0,2];
decision_x10=[0,2];
decision_x11=[0,2];
decision_x12=[0,2];
random_y1=[0,2];
random_y2=[0,2];
random_y3=[0,2];
constraint_x2_x1=[
0,0,2.7|
0,1,9.1|
0,2,2.6|
1,0,6.2|
1,1,4.1|
1,2,6.3|
2,0,1.8|
2,1,6|
2,2,7.8|
];
constraint_x3_x1=[
0,0,1.8|
0,1,5.9|
0,2,1.8|
1,0,5.6|
1,1,2.2|
1,2,7|
2,0,1.9|
2,1,3.7|
2,2,2.3|
];
constraint_x3_x2=[
0,0,4.6|
0,1,8.6|
0,2,2.6|
1,0,6.8|
1,1,3.8|
1,2,0.35|
2,0,3.6|
2,1,3.6|
2,2,0.64|
];
constraint_x4_x1=[
0,0,5.9|
0,1,6.3|
0,2,9|
1,0,7.3|
1,1,5.9|
1,2,1.9|
2,0,0.068|
2,1,9.1|
2,2,1.8|
];
constraint_x5_x1=[
0,0,9.9|
0,1,6.5|
0,2,0.91|
1,0,6.3|
1,1,6.1|
1,2,2.1|
2,0,5.5|
2,1,5|
2,2,3.3|
];
constraint_x5_x2=[
0,0,3.8|
0,1,8.7|
0,2,4.2|
1,0,8.3|
1,1,3.7|
1,2,6.7|
2,0,3.3|
2,1,4.3|
2,2,8.6|
];
constraint_x5_x3=[
0,0,4.5|
0,1,1.2|
0,2,9.1|
1,0,5|
1,1,9.7|
1,2,1|
2,0,5.1|
2,1,9.4|
2,2,8.2|
];
constraint_x5_x4=[
0,0,4.3|
0,1,7|
0,2,3|
1,0,1.6|
1,1,2.5|
1,2,5.6|
2,0,9.7|
2,1,2.7|
2,2,5.5|
];
constraint_x6_x1=[
0,0,4.6|
0,1,6.2|
0,2,5.6|
1,0,9.1|
1,1,4.9|
1,2,4.4|
2,0,7.4|
2,1,4.3|
2,2,1.6|
];
constraint_x6_x2=[
0,0,4|
0,1,2.1|
0,2,7.2|
1,0,0.68|
1,1,1.9|
1,2,6|
2,0,9.4|
2,1,2.1|
2,2,3.8|
];
constraint_x7_x2=[
0,0,5|
0,1,3|
0,2,1.5|
1,0,5.9|
1,1,4.7|
1,2,0.8|
2,0,9.3|
2,1,2.2|
2,2,7.8|
];
constraint_x7_x5=[
0,0,10|
0,1,3.9|
0,2,8.3|
1,0,8.8|
1,1,8.3|
1,2,8.7|
2,0,8|
2,1,2.7|
2,2,4.6|
];
constraint_x7_x6=[
0,0,2.3|
0,1,3.5|
0,2,9.9|
1,0,0.25|
1,1,2.6|
1,2,0.23|
2,0,3.5|
2,1,7.9|
2,2,5.8|
];
constraint_x8_x3=[
0,0,7.8|
0,1,9.4|
0,2,5.6|
1,0,2.7|
1,1,7.8|
1,2,3.3|
2,0,1.1|
2,1,5.4|
2,2,4.3|
];
constraint_x8_x4=[
0,0,9.9|
0,1,3.3|
0,2,8.3|
1,0,5.1|
1,1,7.8|
1,2,9.8|
2,0,8|
2,1,8.8|
2,2,8.4|
];
constraint_x8_x7=[
0,0,7.5|
0,1,3.6|
0,2,9.8|
1,0,2.8|
1,1,9.2|
1,2,2.1|
2,0,3.4|
2,1,4.3|
2,2,2.3|
];
constraint_x9_x1=[
0,0,0.8|
0,1,9.3|
0,2,6.4|
1,0,3.9|
1,1,0.79|
1,2,7.6|
2,0,8.4|
2,1,3.4|
2,2,7|
];
constraint_x9_x3=[
0,0,7.7|
0,1,8.8|
0,2,0.36|
1,0,9.2|
1,1,7.9|
1,2,0.018|
2,0,8.8|
2,1,5.1|
2,2,7.1|
];
constraint_x9_x5=[
0,0,5.4|
0,1,0.69|
0,2,9.4|
1,0,4.9|
1,1,1.3|
1,2,4.1|
2,0,3.8|
2,1,9.8|
2,2,8.5|
];
constraint_x9_x7=[
0,0,5.9|
0,1,4.6|
0,2,9.3|
1,0,8.5|
1,1,6.1|
1,2,1.5|
2,0,8.4|
2,1,7.9|
2,2,6.9|
];
constraint_x10_x3=[
0,0,8.2|
0,1,0.28|
0,2,2.8|
1,0,2.8|
1,1,2.3|
1,2,1.3|
2,0,6.4|
2,1,1.3|
2,2,1.4|
];
constraint_x10_x5=[
0,0,5.6|
0,1,4.5|
0,2,2.5|
1,0,4.8|
1,1,6.1|
1,2,9.7|
2,0,6.6|
2,1,7.2|
2,2,9.2|
];
constraint_x10_x6=[
0,0,3.3|
0,1,2.9|
0,2,6.7|
1,0,6.8|
1,1,3.3|
1,2,1.3|
2,0,4.9|
2,1,1.3|
2,2,4|
];
constraint_x10_x8=[
0,0,1.8|
0,1,0.12|
0,2,1.9|
1,0,9|
1,1,3.5|
1,2,2.8|
2,0,0.81|
2,1,7.9|
2,2,9.5|
];
constraint_x10_x9=[
0,0,4.1|
0,1,3|
0,2,7.7|
1,0,2.2|
1,1,2.4|
1,2,8.8|
2,0,0.39|
2,1,9.3|
2,2,8.6|
];
constraint_x11_x1=[
0,0,6.7|
0,1,3|
0,2,8.9|
1,0,1.4|
1,1,3.7|
1,2,9.6|
2,0,5.3|
2,1,6|
2,2,8.4|
];
constraint_x11_x3=[
0,0,4.5|
0,1,8.9|
0,2,9.3|
1,0,9.9|
1,1,0.45|
1,2,2|
2,0,9.9|
2,1,1.1|
2,2,7.3|
];
constraint_x11_x4=[
0,0,5.4|
0,1,6.5|
0,2,5.5|
1,0,5.5|
1,1,3.6|
1,2,2.5|
2,0,6.6|
2,1,3|
2,2,8.6|
];
constraint_x11_x5=[
0,0,4.6|
0,1,4|
0,2,6.4|
1,0,3.2|
1,1,3.1|
1,2,4.3|
2,0,5.2|
2,1,5.4|
2,2,6.2|
];
constraint_x11_x10=[
0,0,8.4|
0,1,8.9|
0,2,1.7|
1,0,0.99|
1,1,8|
1,2,4.6|
2,0,4.7|
2,1,4.9|
2,2,2.6|
];
constraint_x12_x4=[
0,0,2.5|
0,1,6.4|
0,2,8.5|
1,0,8.4|
1,1,5.4|
1,2,8.9|
2,0,4.4|
2,1,5.3|
2,2,5.9|
];
constraint_x12_x5=[
0,0,5|
0,1,2.4|
0,2,8.1|
1,0,8.1|
1,1,1|
1,2,7.6|
2,0,1.8|
2,1,4.2|
2,2,5|
];
constraint_x12_x10=[
0,0,5.9|
0,1,2.1|
0,2,6.2|
1,0,6.6|
1,1,4.7|
1,2,2.2|
2,0,2.4|
2,1,6.4|
2,2,7.1|
];
constraint_x1_y1=[
0,0,9.8|
0,1,1.5|
0,2,0.34|
1,0,1.3|
1,1,7.2|
1,2,6.9|
2,0,8.3|
2,1,9.9|
2,2,0.5|
];
constraint_x2_y2=[
0,0,5.2|
0,1,7.7|
0,2,3.1|
1,0,8.4|
1,1,3.9|
1,2,2.8|
2,0,0.38|
2,1,2.7|
2,2,7.3|
];
constraint_x3_y3=[
0,0,5.6|
0,1,4|
0,2,1|
1,0,8.3|
1,1,3.3|
1,2,7.3|
2,0,9.4|
2,1,5.8|
2,2,7.6|
];
initial_distribution_y1=[0.42,0.27,0.32];
initial_distribution_y2=[0.25,0.26,0.49];
initial_distribution_y3=[0.5,0.14,0.36];
transition_y1=[
0.57,0.41,0.013|
0.61,0.15,0.24|
0.51,0.26,0.22|
];
transition_y2=[
0.18,0.7,0.12|
0.34,0.53,0.13|
0.02,0.42,0.56|
];
transition_y3=[
0.071,0.61,0.32|
0.4,0.5,0.1|
0.31,0.26,0.43|
];
